unsat
( _c0
  _c1045
  _c1046
  _c1047
  _c1048
  _c1049
  _c1050
  _c1051
  _c1056
  _c1057
  _c1058
  _c1059
  _c1060
  _c1061
  _c1062
  _c1063
  _c1064
  _c1065
  _c1066
  _c1067
  _c1068
  _c1069
  _c1070
  _c1071
  _c1072
  _c1073
  _c1074
  _c1075
  _c113
  _c114
  _c116
  _c117
  _c150
  _c154
  _c163
  _c169
  _c170
  _c171
  _c173
  _c199
  _c207
  _c211
  _c212
  _c218
  _c220
  _c225
  _c226
  _c24
  _c247
  _c249
  _c256
  _c261
  _c267
  _c268
  _c269
  _c28
  _c281
  _c282
  _c283
  _c297
  _c298
  _c3
  _c309
  _c31
  _c310
  _c316
  _c318
  _c337
  _c338
  _c347
  _c351
  _c352
  _c353
  _c354
  _c355
  _c356
  _c357
  _c359
  _c361
  _c362
  _c363
  _c364
  _c365
  _c366
  _c367
  _c368
  _c369
  _c37
  _c370
  _c371
  _c372
  _c373
  _c374
  _c375
  _c377
  _c378
  _c379
  _c380
  _c381
  _c382
  _c383
  _c384
  _c385
  _c386
  _c387
  _c388
  _c389
  _c39
  _c390
  _c391
  _c394
  _c395
  _c396
  _c397
  _c399
  _c4
  _c400
  _c401
  _c402
  _c403
  _c404
  _c405
  _c407
  _c408
  _c409
  _c410
  _c411
  _c412
  _c413
  _c414
  _c425
  _c426
  _c428
  _c432
  _c434
  _c435
  _c437
  _c438
  _c441
  _c446
  _c45
  _c452
  _c458
  _c459
  _c46
  _c460
  _c467
  _c468
  _c470
  _c480
  _c484
  _c486
  _c488
  _c490
  _c491
  _c497
  _c498
  _c5
  _c501
  _c503
  _c508
  _c509
  _c510
  _c516
  _c518
  _c519
  _c522
  _c526
  _c536
  _c543
  _c563
  _c564
  _c567
  _c57
  _c570
  _c572
  _c574
  _c575
  _c578
  _c6
  _c60
  _c614
  _c623
  _c624
  _c627
  _c662
  _c669
  _c671
  _c7
  _c710
  _c711
  _c712
  _c718
  _c719
  _c720
  _c759
  _c760
  _c761
  _c762
  _c763
  _c764
  _c765
  _c767
  _c768
  _c769
  _c770
  _c771
  _c772
  _c773
  _c775
  _c776
  _c777
  _c778
  _c779
  _c780
  _c781
  _c783
  _c784
  _c785
  _c786
  _c788
  _c794
  _c796
  _c797
  _c802
  _c803
  _c804
  _c805
  _c807
  _c808
  _c809
  _c81
  _c810
  _c811
  _c812
  _c814
  _c815
  _c816
  _c817
  _c818
  _c821
  _c822
  _c823
  _c824
  _c828
  _c830
  _c835
  _c836
  _c842
  _c849
  _c850
  _c851
  _c852
  _c853
  _c854
  _c855
  _c856
  _c857
  _c858
  _c859
  _c861
  _c863
  _c865
  _c866
  _c867
  _c870
  _c871
  _c872
  _c873
  _c875
  _c877
  _c878
  _c879
  _c88
  _c880
  _c881
  _c889
  _c891
  _c897
  _c905
  _c906
  _c907
  _c908
  _c909
  _c910
  _c912
  _c913
  _c914
  _c915
  _c916
  _c919
  _c920
  _c921
  _c922
  _c926
  _c927
  _c928
  _c933
  _c934 )
